299238
6,8,24,50,41,52,4,28,34,57,44,38,58,46,5,21,11,53,18,26,80,56,72,40,75,22,19,83,74,27,9,20,67,54,14,76,70,62,36,68,16,39,63,31,71,7,78,82,30,3,2,47,49,43,60,55,66,17,77,81,12,51,33,61,13,37,73,64,10,1,29,45,48,32,15,65,59,35,23,79,25,42,69